; benchmark generated from python API
(set-info :status unknown)
(declare-fun x_days () Int)
(assert
 (>= x_days (- 36584)))
(assert
 (<= x_days 36829))
(assert
 (>= x_days 8371))
(assert
 (let ((?x1016 (+ x_days 730179)))
 (let ((?x919 (mod ?x1016 146097)))
 (let ((?x916 (div ?x919 36524)))
 (let ((?x993 (ite (<= 4 ?x916) 3 ?x916)))
 (let ((?x601 (- ?x919 (* ?x993 36524))))
 (let ((?x830 (mod ?x601 1461)))
 (let ((?x966 (div ?x830 365)))
 (let ((?x1345 (ite (<= 4 ?x966) 3 ?x966)))
 (let ((?x728 (+ (+ (* (div ?x1016 146097) 400) (* ?x993 100)) (* (div ?x601 1461) 4))))
 (let ((?x1096 (+ (+ ?x728 ?x1345) 1)))
 (let (($x595 (or (and (= (mod ?x1096 4) 0) (and (distinct (mod ?x1096 100) 0) true)) (= (mod ?x1096 400) 0))))
 (let ((?x311 (- ?x830 (* ?x1345 365))))
 (let ((?x596 (ite $x595 31 31)))
 (let (($x267 (>= ?x311 ?x596)))
 (let ((?x591 (ite $x267 (+ (- ?x311 ?x596) 1) (+ (- ?x311 (ite $x595 0 0)) 1))))
 (let ((?x647 (ite $x595 60 59)))
 (let (($x1158 (>= ?x311 ?x647)))
 (let ((?x684 (ite $x595 91 90)))
 (let (($x683 (>= ?x311 ?x684)))
 (let ((?x363 (ite $x683 (+ (- ?x311 ?x684) 1) (ite $x1158 (+ (- ?x311 ?x647) 1) ?x591))))
 (let ((?x1226 (ite $x595 121 120)))
 (let (($x664 (>= ?x311 ?x1226)))
 (let ((?x663 (ite $x595 152 151)))
 (let (($x761 (>= ?x311 ?x663)))
 (let ((?x329 (ite $x761 (+ (- ?x311 ?x663) 1) (ite $x664 (+ (- ?x311 ?x1226) 1) ?x363))))
 (let ((?x1294 (ite $x595 182 181)))
 (let (($x1344 (>= ?x311 ?x1294)))
 (let ((?x543 (ite $x595 213 212)))
 (let (($x621 (>= ?x311 ?x543)))
 (let ((?x1190 (ite $x621 (+ (- ?x311 ?x543) 1) (ite $x1344 (+ (- ?x311 ?x1294) 1) ?x329))))
 (let ((?x254 (ite $x595 244 243)))
 (let (($x294 (>= ?x311 ?x254)))
 (let ((?x1367 (ite $x595 274 273)))
 (let (($x904 (>= ?x311 ?x1367)))
 (let ((?x739 (ite $x904 (+ (- ?x311 ?x1367) 1) (ite $x294 (+ (- ?x311 ?x254) 1) ?x1190))))
 (let ((?x665 (ite $x595 305 304)))
 (let (($x607 (>= ?x311 ?x665)))
 (let ((?x1073 (ite $x595 335 334)))
 (let (($x609 (>= ?x311 ?x1073)))
 (let ((?x334 (ite $x609 (+ (- ?x311 ?x1073) 1) (ite $x607 (+ (- ?x311 ?x665) 1) ?x739))))
 (let ((?x1357 (ite $x664 5 (ite $x683 4 (ite $x1158 3 (ite $x267 2 1))))))
 (let ((?x682 (ite $x294 9 (ite $x621 8 (ite $x1344 7 (ite $x761 6 ?x1357))))))
 (let ((?x271 (+ (ite $x609 12 (ite $x607 11 (ite $x904 10 ?x682))) (+ (* 0 12) 1))))
 (let ((?x337 (- ?x271 1)))
 (let ((?x332 (+ (mod ?x337 12) 1)))
 (let ((?x1347 (ite (or (= ?x332 4) (= ?x332 6) (= ?x332 9) (= ?x332 11)) 30 31)))
 (let (($x554 (and (= (mod (+ ?x1096 (+ 0 (div ?x337 12))) 4) 0) (and (distinct (mod (+ ?x1096 (+ 0 (div ?x337 12))) 100) 0) true))))
 (let (($x1091 (or $x554 (= (mod (+ ?x1096 (+ 0 (div ?x337 12))) 400) 0))))
 (let ((?x1351 (ite (= ?x332 2) (ite $x1091 29 28) ?x1347)))
 (let ((?x1086 (ite (> 1 ?x334) 1 (ite (> ?x334 ?x1351) ?x1351 ?x334))))
 (let ((?x1371 (ite (> 1 ?x1086) 1 (ite (> ?x1086 ?x1351) ?x1351 ?x1086))))
 (let ((?x1363 (ite (= 2 ?x332) (ite $x1091 31 31) (ite (= 1 ?x332) (ite $x1091 0 0) 0))))
 (let ((?x1210 (ite (= 4 ?x332) (ite $x1091 91 90) (ite (= 3 ?x332) (ite $x1091 60 59) ?x1363))))
 (let ((?x1310 (ite (= 6 ?x332) (ite $x1091 152 151) (ite (= 5 ?x332) (ite $x1091 121 120) ?x1210))))
 (let ((?x1333 (ite (= 8 ?x332) (ite $x1091 213 212) (ite (= 7 ?x332) (ite $x1091 182 181) ?x1310))))
 (let ((?x1278 (ite (= 10 ?x332) (ite $x1091 274 273) (ite (= 9 ?x332) (ite $x1091 244 243) ?x1333))))
 (let ((?x1302 (ite (= 12 ?x332) (ite $x1091 335 334) (ite (= 11 ?x332) (ite $x1091 305 304) ?x1278))))
 (let ((?x1094 (+ (* 365 (- (+ ?x1096 (+ 0 (div ?x337 12))) 1)) (div (- (+ ?x1096 (+ 0 (div ?x337 12))) 1) 4))))
 (let ((?x1084 (+ (- ?x1094 (div (- (+ ?x1096 (+ 0 (div ?x337 12))) 1) 100)) (div (- (+ ?x1096 (+ 0 (div ?x337 12))) 1) 400))))
 (let ((?x895 (+ (+ (- (+ (+ ?x1084 ?x1302) (- ?x1371 1)) 730179) 0) 730179)))
 (let ((?x1290 (mod ?x895 146097)))
 (let ((?x838 (div ?x1290 36524)))
 (let ((?x770 (ite (<= 4 ?x838) 3 ?x838)))
 (let ((?x773 (- ?x1290 (* ?x770 36524))))
 (let ((?x780 (mod ?x773 1461)))
 (let ((?x782 (div ?x780 365)))
 (let ((?x766 (ite (<= 4 ?x782) 3 ?x782)))
 (let ((?x606 (+ (+ (* (div ?x895 146097) 400) (* ?x770 100)) (* (div ?x773 1461) 4))))
 (let ((?x602 (+ (+ ?x606 ?x766) 1)))
 (let (($x656 (or (and (= (mod ?x602 4) 0) (and (distinct (mod ?x602 100) 0) true)) (= (mod ?x602 400) 0))))
 (let ((?x754 (- ?x780 (* ?x766 365))))
 (let ((?x612 (ite $x656 31 31)))
 (let (($x654 (>= ?x754 ?x612)))
 (let ((?x362 (ite $x654 (+ (- ?x754 ?x612) 1) (+ (- ?x754 (ite $x656 0 0)) 1))))
 (let ((?x619 (ite $x656 60 59)))
 (let (($x631 (>= ?x754 ?x619)))
 (let ((?x615 (ite $x656 91 90)))
 (let (($x613 (>= ?x754 ?x615)))
 (let ((?x667 (ite $x613 (+ (- ?x754 ?x615) 1) (ite $x631 (+ (- ?x754 ?x619) 1) ?x362))))
 (let ((?x213 (ite $x656 121 120)))
 (let (($x552 (>= ?x754 ?x213)))
 (let ((?x655 (ite $x656 152 151)))
 (let (($x616 (>= ?x754 ?x655)))
 (let ((?x693 (ite $x616 (+ (- ?x754 ?x655) 1) (ite $x552 (+ (- ?x754 ?x213) 1) ?x667))))
 (let ((?x639 (ite $x656 182 181)))
 (let (($x587 (>= ?x754 ?x639)))
 (let ((?x626 (ite $x656 213 212)))
 (let (($x622 (>= ?x754 ?x626)))
 (let ((?x734 (ite $x622 (+ (- ?x754 ?x626) 1) (ite $x587 (+ (- ?x754 ?x639) 1) ?x693))))
 (let ((?x611 (ite $x656 244 243)))
 (let (($x668 (>= ?x754 ?x611)))
 (let ((?x604 (ite $x656 274 273)))
 (let (($x617 (>= ?x754 ?x604)))
 (let ((?x538 (ite $x617 (+ (- ?x754 ?x604) 1) (ite $x668 (+ (- ?x754 ?x611) 1) ?x734))))
 (let ((?x657 (ite $x656 305 304)))
 (let (($x759 (>= ?x754 ?x657)))
 (let ((?x658 (ite $x656 335 334)))
 (let (($x777 (>= ?x754 ?x658)))
 (let ((?x690 (ite $x777 (+ (- ?x754 ?x658) 1) (ite $x759 (+ (- ?x754 ?x657) 1) ?x538))))
 (let (($x306 (= 0 0)))
 (let (($x712 (= (mod (ite $x306 (+ ?x1096 (+ 0 (div ?x337 12))) ?x602) 400) 0)))
 (let (($x1022 (and (distinct (mod (ite $x306 (+ ?x1096 (+ 0 (div ?x337 12))) ?x602) 100) 0) true)))
 (let (($x700 (= (mod (ite $x306 (+ ?x1096 (+ 0 (div ?x337 12))) ?x602) 4) 0)))
 (let (($x798 (or (and $x700 $x1022) $x712)))
 (let ((?x659 (ite $x552 5 (ite $x613 4 (ite $x631 3 (ite $x654 2 1))))))
 (let ((?x641 (ite $x668 9 (ite $x622 8 (ite $x587 7 (ite $x616 6 ?x659))))))
 (let ((?x710 (ite $x306 ?x332 (ite $x777 12 (ite $x759 11 (ite $x617 10 ?x641))))))
 (let ((?x262 (ite (= 2 ?x710) (ite $x798 31 31) (ite (= 1 ?x710) (ite $x798 0 0) 0))))
 (let ((?x548 (ite (= 4 ?x710) (ite $x798 91 90) (ite (= 3 ?x710) (ite $x798 60 59) ?x262))))
 (let ((?x721 (ite (= 6 ?x710) (ite $x798 152 151) (ite (= 5 ?x710) (ite $x798 121 120) ?x548))))
 (let ((?x692 (ite (= 8 ?x710) (ite $x798 213 212) (ite (= 7 ?x710) (ite $x798 182 181) ?x721))))
 (let ((?x1053 (ite (= 10 ?x710) (ite $x798 274 273) (ite (= 9 ?x710) (ite $x798 244 243) ?x692))))
 (let ((?x789 (ite (= 12 ?x710) (ite $x798 335 334) (ite (= 11 ?x710) (ite $x798 305 304) ?x1053))))
 (let ((?x336 (+ ?x1096 (+ 0 (div ?x337 12)))))
 (let ((?x704 (ite $x306 ?x336 ?x602)))
 (let ((?x716 (- ?x704 1)))
 (let ((?x689 (+ (- (+ (* 365 ?x716) (div ?x716 4)) (div ?x716 100)) (div ?x716 400))))
 (<= (- (+ (+ ?x689 ?x789) (- (ite $x306 ?x1371 ?x690) 1)) 730179) 8400)))))))))))))))))))))))))))))))))))))))))))))))))))))))))))))))))))))))))))))))))))))))))))))))))))))))))))))))))))))))
(assert
 (= x_days 8372))
(check-sat)
